# SCIP version 5.0.1.4

# Should Benders' decomposition be used to solve the problem?
# [type: bool, advanced: FALSE, range: {TRUE,FALSE}, default: FALSE]
reading/capreader/usebenders = TRUE

# the number of scenarios that will be randomly generated
# [type: int, advanced: FALSE, range: [1,2147483647], default: 250]
reading/capreader/numscenarios = 20
